experiment/data/lkh-res/Vrp-Set-A-n61/Vrp-Set-A-n61-lkh/0.lkh1.vrp
NAME : 0
COMMENT : CVRP Instance
TYPE : CVRP
DIMENSION : 61
EDGE_WEIGHT_TYPE : EUC_2D
CAPACITY : 100
NODE_COORD_SECTION
1	6100	3700
2	9300	5700
3	1500	6700
4	2300	4300
5	5300	500
6	1300	7500
7	2900	7300
8	4700	3700
9	2300	7100
10	6700	4500
11	2100	4900
12	9300	4300
13	6700	1300
14	6900	2500
15	5300	3500
16	2500	3900
17	8500	6900
18	8100	2700
19	7700	7900
20	4500	4300
21	3100	7500
22	4900	9900
23	6300	900
24	4700	3700
25	3300	4700
26	3900	6900
27	4900	300
28	4900	8700
29	8700	3900
30	3700	9100
31	1900	3300
32	9700	3500
33	3100	500
34	3500	2500
35	7900	6100
36	7300	7300
37	3500	9500
38	500	4300
39	1900	4500
40	7100	3900
41	3500	6300
42	2700	7300
43	3100	2100
44	4700	900
45	8700	4500
46	100	4900
47	100	7700
48	6300	7300
49	7900	7100
50	2100	5500
51	6500	2300
52	6500	4700
53	9700	2300
54	2300	7100
55	500	8100
56	5300	2700
57	5700	8500
58	8900	2300
59	5100	6500
60	1300	4900
61	9100	4100
DEMAND_SECTION
1	0
2	23
3	17
4	12
5	6
6	22
7	3
8	24
9	24
10	11
11	7
12	12
13	8
14	14
15	20
16	16
17	16
18	4
19	9
20	18
21	14
22	10
23	19
24	22
25	19
26	9
27	18
28	2
29	18
30	11
31	19
32	18
33	15
34	4
35	12
36	8
37	18
38	12
39	72
40	2
41	5
42	14
43	11
44	19
45	16
46	19
47	3
48	12
49	10
50	20
51	7
52	13
53	16
54	23
55	22
56	18
57	6
58	12
59	27
60	9
61	15
DEPOT_SECTION
1
-1
EOF
