experiment/data/lkh-res/Vrp-Set-A-n61/Vrp-Set-A-n61-lkh/0.lkh1.tour
NAME : 0.104032.tour
COMMENT : Length = 104032
COMMENT : Found by LKH-3 [Keld Helsgaun] Tue Apr  9 00:46:51 2024
TYPE : TOUR
DIMENSION : 69
TOUR_SECTION
1
10
15
8
24
56
64
4
39
16
62
40
29
2
17
49
19
36
35
68
51
18
58
53
32
12
61
45
69
34
43
31
38
46
60
11
25
67
14
13
23
5
27
33
44
66
50
3
47
55
6
42
65
59
30
37
22
28
57
48
52
63
20
41
9
54
7
21
26
-1
EOF
